NAME : R2_4_1
TYPE : VRPSPD
DIMENSION : 401
VEHICLES : 10
CAPACITY : 1000
DISTANCE : 999999
SCALE : 1000
EDGE_WEIGHT_TYPE : EXACT_2D
NODE_COORD_SECTION
1 100 100
2 150 26
3 84 188
4 83 112
5 191 124
6 112 174
7 146 166
8 45 95
9 81 183
10 10 60
11 142 27
12 184 110
13 28 127
14 67 127
15 16 141
16 148 157
17 154 184
18 8 89
19 74 163
20 25 48
21 58 19
22 95 50
23 130 149
24 78 118
25 86 69
26 5 122
27 155 17
28 146 3
29 76 93
30 191 138
31 28 160
32 114 153
33 70 28
34 90 4
35 53 175
36 84 81
37 118 139
38 118 45
39 103 25
40 107 133
41 129 176
42 186 149
43 73 81
44 9 122
45 168 146
46 172 161
47 15 197
48 26 41
49 78 72
50 112 6
51 135 171
52 39 151
53 46 40
54 138 72
55 53 79
56 75 134
57 66 3
58 153 19
59 17 32
60 59 139
61 100 53
62 46 131
63 111 189
64 62 15
65 100 144
66 70 130
67 97 192
68 85 193
69 197 29
70 113 100
71 71 114
72 120 39
73 125 53
74 172 186
75 138 31
76 37 146
77 12 131
78 1 54
79 101 127
80 42 165
81 149 176
82 126 100
83 148 196
84 78 136
85 145 71
86 179 95
87 124 191
88 38 101
89 104 88
90 57 118
91 182 9
92 7 119
93 85 164
94 6 193
95 154 7
96 180 66
97 83 180
98 130 55
99 149 103
100 54 37
101 178 88
102 118 117
103 82 48
104 80 190
105 74 55
106 108 141
107 77 119
108 114 112
109 156 93
110 143 103
111 104 176
112 63 141
113 159 187
114 125 78
115 136 12
116 199 123
117 154 29
118 177 134
119 121 50
120 114 122
121 161 158
122 8 8
123 144 92
124 41 43
125 113 151
126 39 186
127 60 153
128 131 92
129 53 180
130 28 77
131 186 8
132 40 130
133 71 131
134 158 20
135 121 48
136 45 55
137 50 135
138 152 122
139 46 5
140 32 47
141 111 98
142 138 69
143 171 69
144 125 34
145 94 31
146 29 121
147 20 72
148 179 151
149 18 59
150 162 162
151 152 190
152 66 196
153 45 142
154 36 104
155 63 44
156 83 81
157 172 66
158 151 180
159 109 48
160 64 156
161 85 85
162 157 196
163 135 110
164 59 24
165 175 60
166 127 39
167 103 97
168 71 145
169 40 115
170 114 72
171 62 38
172 110 110
173 51 162
174 193 12
175 19 51
176 178 61
177 161 3
178 63 116
179 151 179
180 88 143
181 32 190
182 76 102
183 139 97
184 101 29
185 176 134
186 60 71
187 137 10
188 17 166
189 75 170
190 90 174
191 122 58
192 113 14
193 98 89
194 59 83
195 44 10
196 97 9
197 116 52
198 155 22
199 193 127
200 154 59
201 122 13
202 70 37
203 172 55
204 98 193
205 46 22
206 188 70
207 157 142
208 63 192
209 88 15
210 189 83
211 110 8
212 171 36
213 65 42
214 113 158
215 51 112
216 151 132
217 50 31
218 181 70
219 12 113
220 20 113
221 125 49
222 27 97
223 116 4
224 136 111
225 104 142
226 112 42
227 145 19
228 23 168
229 168 58
230 3 101
231 137 59
232 184 140
233 48 94
234 198 16
235 26 197
236 84 180
237 31 79
238 136 90
239 123 90
240 62 152
241 10 20
242 66 98
243 19 38
244 69 150
245 181 156
246 39 112
247 104 5
248 41 16
249 172 179
250 122 38
251 89 176
252 74 67
253 197 7
254 24 197
255 131 136
256 26 45
257 47 118
258 20 59
259 151 66
260 86 110
261 55 100
262 186 65
263 63 151
264 159 196
265 179 5
266 107 96
267 139 158
268 5 162
269 173 147
270 121 46
271 144 59
272 196 126
273 134 157
274 135 45
275 88 152
276 41 186
277 183 170
278 103 77
279 97 129
280 147 193
281 158 81
282 48 106
283 78 169
284 174 194
285 152 68
286 1 149
287 18 35
288 123 59
289 137 41
290 115 75
291 124 165
292 112 78
293 24 131
294 116 118
295 80 167
296 62 138
297 195 132
298 149 78
299 38 183
300 174 185
301 35 160
302 32 23
303 111 129
304 32 166
305 13 139
306 158 132
307 188 194
308 92 178
309 55 87
310 86 150
311 114 183
312 42 72
313 56 148
314 115 50
315 200 162
316 69 64
317 108 148
318 35 9
319 99 45
320 125 180
321 142 60
322 181 39
323 165 181
324 87 30
325 176 58
326 168 119
327 198 97
328 89 153
329 67 70
330 28 187
331 42 144
332 138 61
333 11 118
334 143 179
335 182 89
336 141 146
337 12 15
338 184 101
339 127 143
340 137 158
341 25 165
342 22 61
343 41 73
344 23 74
345 159 129
346 68 115
347 98 77
348 126 199
349 28 15
350 68 156
351 94 119
352 31 63
353 23 123
354 105 26
355 60 184
356 69 133
357 141 132
358 56 19
359 110 184
360 178 127
361 75 173
362 113 105
363 165 156
364 109 197
365 55 51
366 37 177
367 30 183
368 49 99
369 143 116
370 30 67
371 89 39
372 23 176
373 127 60
374 6 120
375 65 77
376 108 187
377 159 105
378 176 132
379 7 108
380 34 145
381 42 174
382 63 149
383 57 157
384 56 90
385 148 38
386 119 113
387 164 37
388 173 42
389 106 41
390 155 107
391 49 71
392 40 95
393 5 130
394 182 110
395 68 191
396 68 40
397 64 123
398 109 45
399 109 85
400 42 148
401 67 138
PICKUP_AND_DELIVERY_SECTION
1 0 0 10000000 0 0 0
2 0 0 10000000 0 27 16
3 0 0 10000000 0 37 17
4 0 0 10000000 0 39 28
5 0 0 10000000 0 33 7
6 0 0 10000000 0 5 20
7 0 0 10000000 0 12 24
8 0 0 10000000 0 40 15
9 0 0 10000000 0 24 11
10 0 0 10000000 0 20 16
11 0 0 10000000 0 14 11
12 0 0 10000000 0 14 23
13 0 0 10000000 0 35 24
14 0 0 10000000 0 24 21
15 0 0 10000000 0 25 20
16 0 0 10000000 0 38 21
17 0 0 10000000 0 42 36
18 0 0 10000000 0 38 13
19 0 0 10000000 0 21 21
20 0 0 10000000 0 44 11
21 0 0 10000000 0 32 10
22 0 0 10000000 0 7 25
23 0 0 10000000 0 22 17
24 0 0 10000000 0 38 28
25 0 0 10000000 0 13 14
26 0 0 10000000 0 42 15
27 0 0 10000000 0 1 32
28 0 0 10000000 0 15 24
29 0 0 10000000 0 30 7
30 0 0 10000000 0 15 2
31 0 0 10000000 0 24 27
32 0 0 10000000 0 6 23
33 0 0 10000000 0 9 11
34 0 0 10000000 0 16 22
35 0 0 10000000 0 32 28
36 0 0 10000000 0 18 11
37 0 0 10000000 0 22 13
38 0 0 10000000 0 17 28
39 0 0 10000000 0 47 2
40 0 0 10000000 0 11 22
41 0 0 10000000 0 14 18
42 0 0 10000000 0 7 25
43 0 0 10000000 0 36 19
44 0 0 10000000 0 28 17
45 0 0 10000000 0 26 19
46 0 0 10000000 0 37 6
47 0 0 10000000 0 2 10
48 0 0 10000000 0 2 14
49 0 0 10000000 0 37 9
50 0 0 10000000 0 23 39
51 0 0 10000000 0 11 27
52 0 0 10000000 0 39 26
53 0 0 10000000 0 5 15
54 0 0 10000000 0 10 8
55 0 0 10000000 0 5 14
56 0 0 10000000 0 24 16
57 0 0 10000000 0 12 9
58 0 0 10000000 0 13 3
59 0 0 10000000 0 39 16
60 0 0 10000000 0 10 26
61 0 0 10000000 0 16 22
62 0 0 10000000 0 7 21
63 0 0 10000000 0 39 3
64 0 0 10000000 0 22 29
65 0 0 10000000 0 13 17
66 0 0 10000000 0 30 8
67 0 0 10000000 0 41 23
68 0 0 10000000 0 26 25
69 0 0 10000000 0 34 16
70 0 0 10000000 0 27 5
71 0 0 10000000 0 40 25
72 0 0 10000000 0 42 31
73 0 0 10000000 0 19 24
74 0 0 10000000 0 4 35
75 0 0 10000000 0 25 10
76 0 0 10000000 0 39 10
77 0 0 10000000 0 9 28
78 0 0 10000000 0 9 14
79 0 0 10000000 0 36 31
80 0 0 10000000 0 20 22
81 0 0 10000000 0 32 16
82 0 0 10000000 0 29 36
83 0 0 10000000 0 4 13
84 0 0 10000000 0 7 31
85 0 0 10000000 0 41 10
86 0 0 10000000 0 39 19
87 0 0 10000000 0 48 24
88 0 0 10000000 0 10 10
89 0 0 10000000 0 46 25
90 0 0 10000000 0 21 21
91 0 0 10000000 0 47 30
92 0 0 10000000 0 6 30
93 0 0 10000000 0 1 23
94 0 0 10000000 0 11 13
95 0 0 10000000 0 46 32
96 0 0 10000000 0 48 13
97 0 0 10000000 0 28 15
98 0 0 10000000 0 37 28
99 0 0 10000000 0 14 17
100 0 0 10000000 0 10 21
101 0 0 10000000 0 5 23
102 0 0 10000000 0 5 20
103 0 0 10000000 0 1 8
104 0 0 10000000 0 31 13
105 0 0 10000000 0 30 3
106 0 0 10000000 0 12 13
107 0 0 10000000 0 2 17
108 0 0 10000000 0 35 17
109 0 0 10000000 0 42 25
110 0 0 10000000 0 24 15
111 0 0 10000000 0 33 19
112 0 0 10000000 0 41 14
113 0 0 10000000 0 39 9
114 0 0 10000000 0 11 11
115 0 0 10000000 0 29 21
116 0 0 10000000 0 47 20
117 0 0 10000000 0 19 19
118 0 0 10000000 0 21 26
119 0 0 10000000 0 44 24
120 0 0 10000000 0 15 10
121 0 0 10000000 0 45 24
122 0 0 10000000 0 42 11
123 0 0 10000000 0 13 23
124 0 0 10000000 0 35 30
125 0 0 10000000 0 21 2
126 0 0 10000000 0 7 5
127 0 0 10000000 0 11 11
128 0 0 10000000 0 48 22
129 0 0 10000000 0 37 4
130 0 0 10000000 0 2 12
131 0 0 10000000 0 37 31
132 0 0 10000000 0 3 1
133 0 0 10000000 0 23 11
134 0 0 10000000 0 1 19
135 0 0 10000000 0 11 17
136 0 0 10000000 0 48 11
137 0 0 10000000 0 35 8
138 0 0 10000000 0 5 25
139 0 0 10000000 0 43 8
140 0 0 10000000 0 21 27
141 0 0 10000000 0 19 16
142 0 0 10000000 0 29 9
143 0 0 10000000 0 43 19
144 0 0 10000000 0 21 14
145 0 0 10000000 0 41 18
146 0 0 10000000 0 17 46
147 0 0 10000000 0 10 21
148 0 0 10000000 0 7 20
149 0 0 10000000 0 19 20
150 0 0 10000000 0 13 20
151 0 0 10000000 0 2 10
152 0 0 10000000 0 41 23
153 0 0 10000000 0 28 15
154 0 0 10000000 0 24 11
155 0 0 10000000 0 35 14
156 0 0 10000000 0 2 21
157 0 0 10000000 0 45 23
158 0 0 10000000 0 32 14
159 0 0 10000000 0 44 3
160 0 0 10000000 0 40 4
161 0 0 10000000 0 44 14
162 0 0 10000000 0 32 30
163 0 0 10000000 0 39 7
164 0 0 10000000 0 30 19
165 0 0 10000000 0 41 18
166 0 0 10000000 0 6 13
167 0 0 10000000 0 35 9
168 0 0 10000000 0 48 7
169 0 0 10000000 0 13 41
170 0 0 10000000 0 25 22
171 0 0 10000000 0 2 19
172 0 0 10000000 0 16 14
173 0 0 10000000 0 10 20
174 0 0 10000000 0 33 3
175 0 0 10000000 0 19 19
176 0 0 10000000 0 13 19
177 0 0 10000000 0 37 22
178 0 0 10000000 0 45 21
179 0 0 10000000 0 2 12
180 0 0 10000000 0 16 17
181 0 0 10000000 0 33 13
182 0 0 10000000 0 8 15
183 0 0 10000000 0 6 4
184 0 0 10000000 0 18 7
185 0 0 10000000 0 9 14
186 0 0 10000000 0 34 22
187 0 0 10000000 0 30 21
188 0 0 10000000 0 19 22
189 0 0 10000000 0 29 17
190 0 0 10000000 0 38 18
191 0 0 10000000 0 14 15
192 0 0 10000000 0 42 20
193 0 0 10000000 0 24 29
194 0 0 10000000 0 40 24
195 0 0 10000000 0 34 16
196 0 0 10000000 0 11 13
197 0 0 10000000 0 15 10
198 0 0 10000000 0 41 24
199 0 0 10000000 0 13 7
200 0 0 10000000 0 13 17
201 0 0 10000000 0 38 27
202 0 0 10000000 0 42 10
203 0 0 10000000 0 29 11
204 0 0 10000000 0 9 27
205 0 0 10000000 0 19 10
206 0 0 10000000 0 3 13
207 0 0 10000000 0 13 13
208 0 0 10000000 0 27 12
209 0 0 10000000 0 47 22
210 0 0 10000000 0 42 43
211 0 0 10000000 0 2 26
212 0 0 10000000 0 3 6
213 0 0 10000000 0 8 12
214 0 0 10000000 0 33 19
215 0 0 10000000 0 21 13
216 0 0 10000000 0 4 6
217 0 0 10000000 0 47 20
218 0 0 10000000 0 15 25
219 0 0 10000000 0 25 2
220 0 0 10000000 0 20 22
221 0 0 10000000 0 2 17
222 0 0 10000000 0 33 30
223 0 0 10000000 0 35 13
224 0 0 10000000 0 31 19
225 0 0 10000000 0 16 24
226 0 0 10000000 0 33 33
227 0 0 10000000 0 26 20
228 0 0 10000000 0 3 13
229 0 0 10000000 0 6 29
230 0 0 10000000 0 20 33
231 0 0 10000000 0 4 23
232 0 0 10000000 0 1 15
233 0 0 10000000 0 31 15
234 0 0 10000000 0 47 18
235 0 0 10000000 0 3 17
236 0 0 10000000 0 2 12
237 0 0 10000000 0 33 19
238 0 0 10000000 0 12 18
239 0 0 10000000 0 30 21
240 0 0 10000000 0 30 19
241 0 0 10000000 0 15 14
242 0 0 10000000 0 3 2
243 0 0 10000000 0 44 16
244 0 0 10000000 0 32 17
245 0 0 10000000 0 46 21
246 0 0 10000000 0 7 26
247 0 0 10000000 0 36 26
248 0 0 10000000 0 34 6
249 0 0 10000000 0 1 1
250 0 0 10000000 0 31 5
251 0 0 10000000 0 11 13
252 0 0 10000000 0 5 2
253 0 0 10000000 0 28 13
254 0 0 10000000 0 37 17
255 0 0 10000000 0 25 18
256 0 0 10000000 0 35 8
257 0 0 10000000 0 34 23
258 0 0 10000000 0 14 20
259 0 0 10000000 0 5 11
260 0 0 10000000 0 7 18
261 0 0 10000000 0 34 22
262 0 0 10000000 0 32 39
263 0 0 10000000 0 47 22
264 0 0 10000000 0 48 6
265 0 0 10000000 0 6 9
266 0 0 10000000 0 5 23
267 0 0 10000000 0 5 9
268 0 0 10000000 0 15 26
269 0 0 10000000 0 23 19
270 0 0 10000000 0 1 3
271 0 0 10000000 0 24 18
272 0 0 10000000 0 37 6
273 0 0 10000000 0 43 20
274 0 0 10000000 0 13 7
275 0 0 10000000 0 5 13
276 0 0 10000000 0 16 27
277 0 0 10000000 0 11 17
278 0 0 10000000 0 24 21
279 0 0 10000000 0 16 11
280 0 0 10000000 0 27 29
281 0 0 10000000 0 13 23
282 0 0 10000000 0 20 23
283 0 0 10000000 0 42 10
284 0 0 10000000 0 38 8
285 0 0 10000000 0 8 9
286 0 0 10000000 0 31 35
287 0 0 10000000 0 3 24
288 0 0 10000000 0 36 18
289 0 0 10000000 0 11 15
290 0 0 10000000 0 34 26
291 0 0 10000000 0 48 24
292 0 0 10000000 0 14 34
293 0 0 10000000 0 28 31
294 0 0 10000000 0 10 12
295 0 0 10000000 0 12 10
296 0 0 10000000 0 28 15
297 0 0 10000000 0 19 6
298 0 0 10000000 0 47 6
299 0 0 10000000 0 34 10
300 0 0 10000000 0 35 15
301 0 0 10000000 0 37 16
302 0 0 10000000 0 16 10
303 0 0 10000000 0 3 27
304 0 0 10000000 0 23 17
305 0 0 10000000 0 18 34
306 0 0 10000000 0 15 12
307 0 0 10000000 0 40 9
308 0 0 10000000 0 1 26
309 0 0 10000000 0 19 30
310 0 0 10000000 0 22 22
311 0 0 10000000 0 48 35
312 0 0 10000000 0 26 18
313 0 0 10000000 0 29 20
314 0 0 10000000 0 39 14
315 0 0 10000000 0 37 24
316 0 0 10000000 0 5 48
317 0 0 10000000 0 17 21
318 0 0 10000000 0 4 29
319 0 0 10000000 0 34 21
320 0 0 10000000 0 21 1
321 0 0 10000000 0 44 13
322 0 0 10000000 0 45 11
323 0 0 10000000 0 28 22
324 0 0 10000000 0 7 10
325 0 0 10000000 0 21 21
326 0 0 10000000 0 15 14
327 0 0 10000000 0 33 14
328 0 0 10000000 0 35 12
329 0 0 10000000 0 25 18
330 0 0 10000000 0 36 16
331 0 0 10000000 0 5 30
332 0 0 10000000 0 16 19
333 0 0 10000000 0 11 33
334 0 0 10000000 0 15 24
335 0 0 10000000 0 20 21
336 0 0 10000000 0 13 15
337 0 0 10000000 0 32 16
338 0 0 10000000 0 42 17
339 0 0 10000000 0 4 7
340 0 0 10000000 0 28 3
341 0 0 10000000 0 45 24
342 0 0 10000000 0 18 17
343 0 0 10000000 0 5 21
344 0 0 10000000 0 6 21
345 0 0 10000000 0 38 10
346 0 0 10000000 0 25 20
347 0 0 10000000 0 27 7
348 0 0 10000000 0 48 18
349 0 0 10000000 0 20 18
350 0 0 10000000 0 4 28
351 0 0 10000000 0 40 25
352 0 0 10000000 0 30 11
353 0 0 10000000 0 9 15
354 0 0 10000000 0 45 24
355 0 0 10000000 0 47 7
356 0 0 10000000 0 12 8
357 0 0 10000000 0 4 18
358 0 0 10000000 0 47 22
359 0 0 10000000 0 32 10
360 0 0 10000000 0 44 23
361 0 0 10000000 0 22 30
362 0 0 10000000 0 2 23
363 0 0 10000000 0 37 17
364 0 0 10000000 0 25 15
365 0 0 10000000 0 7 17
366 0 0 10000000 0 15 21
367 0 0 10000000 0 34 9
368 0 0 10000000 0 35 32
369 0 0 10000000 0 8 18
370 0 0 10000000 0 32 7
371 0 0 10000000 0 31 19
372 0 0 10000000 0 33 20
373 0 0 10000000 0 23 23
374 0 0 10000000 0 18 25
375 0 0 10000000 0 20 19
376 0 0 10000000 0 17 22
377 0 0 10000000 0 22 20
378 0 0 10000000 0 29 10
379 0 0 10000000 0 5 32
380 0 0 10000000 0 38 21
381 0 0 10000000 0 9 13
382 0 0 10000000 0 42 17
383 0 0 10000000 0 41 26
384 0 0 10000000 0 8 15
385 0 0 10000000 0 42 6
386 0 0 10000000 0 28 35
387 0 0 10000000 0 5 19
388 0 0 10000000 0 42 3
389 0 0 10000000 0 25 13
390 0 0 10000000 0 44 10
391 0 0 10000000 0 47 36
392 0 0 10000000 0 13 25
393 0 0 10000000 0 1 15
394 0 0 10000000 0 47 15
395 0 0 10000000 0 25 15
396 0 0 10000000 0 48 23
397 0 0 10000000 0 21 17
398 0 0 10000000 0 43 14
399 0 0 10000000 0 5 3
400 0 0 10000000 0 25 14
401 0 0 10000000 0 29 11
DEPOT_SECTION
1 
-1
EOF
